Version identifier: 22.1.1.0 | 2022-11-28 | 9160aff4d
CPXPARAM_ClockType                               1
CPXPARAM_Read_DataCheck                          1
CPXPARAM_Threads                                 1
CPXPARAM_TimeLimit                               7200
CPXPARAM_MIP_Tolerances_AbsMIPGap                0
CPXPARAM_MIP_Tolerances_MIPGap                   0
CPXPARAM_MIP_Tolerances_Integrality              0
Tried aggregator 4 times.
MIP Presolve eliminated 95079 rows and 3027 columns.
MIP Presolve modified 164 coefficients.
Aggregator did 709 substitutions.
Reduced MIP has 4005 rows, 2744 columns, and 16236 nonzeros.
Reduced MIP has 2744 binaries, 0 generals, 0 SOSs, and 0 indicators.
Presolve time = 0.15 sec. (113.34 ticks)
Probing fixed 376 vars, tightened 0 bounds.
Probing changed sense of 20 constraints.
Probing time = 0.08 sec. (41.31 ticks)
Cover probing fixed 0 vars, tightened 94 bounds.
Tried aggregator 3 times.
MIP Presolve eliminated 586 rows and 384 columns.
MIP Presolve modified 58 coefficients.
Aggregator did 96 substitutions.
Reduced MIP has 3323 rows, 2264 columns, and 13318 nonzeros.
Reduced MIP has 2264 binaries, 0 generals, 0 SOSs, and 0 indicators.
Presolve time = 0.04 sec. (25.57 ticks)
Probing time = 0.01 sec. (3.62 ticks)
Tried aggregator 1 time.
Detecting symmetries...
Reduced MIP has 3323 rows, 2264 columns, and 13318 nonzeros.
Reduced MIP has 2264 binaries, 0 generals, 0 SOSs, and 0 indicators.
Presolve time = 0.01 sec. (8.97 ticks)
Probing time = 0.00 sec. (3.62 ticks)
Clique table members: 9117.
MIP emphasis: balance optimality and feasibility.
MIP search method: dynamic search.
Parallel mode: none, using 1 thread.
Root relaxation solution time = 0.26 sec. (206.10 ticks)

        Nodes                                         Cuts/
   Node  Left     Objective  IInf  Best Integer    Best Bound    ItCnt     Gap

      0     0       67.0000   651                     67.0000     2415         
      0     0       67.0000   503                 Cliques: 24     2662         
      0     0       66.0000   471                   Cuts: 174     2929         
      0     0       66.0000   460                    Cuts: 78     3184         
      0     0       66.0000   437                    Cuts: 50     3361         
      0     0       66.0000   494                    Cuts: 37     3539         
Detecting symmetries...
*     0+    0                           48.0000       66.0000            37.50%
Detecting symmetries...
      0     2       66.0000   455       48.0000       66.0000     3539   37.50%
Elapsed time = 2.66 sec. (1959.98 ticks, tree = 0.01 MB, solutions = 1)
      1     3       66.0000   438       48.0000       66.0000     7629   37.50%
      3     5       66.0000   530       48.0000       66.0000    10405   37.50%
     13    15       66.0000   316       48.0000       66.0000    12104   37.50%
*    30+   20                           60.0000       66.0000            10.00%
     43    28       65.0000   153       60.0000       66.0000    14565   10.00%
     99    59       63.2857   255       60.0000       66.0000    17269   10.00%
*   118    64      integral     0       62.0000       66.0000    17982    6.45%
    142    79       63.9355   189       62.0000       66.0000    19595    6.45%
    170    96       66.0000   267       62.0000       66.0000    21971    6.45%
    215   127       63.9245   178       62.0000       66.0000    24945    6.45%
    246   138       66.0000   234       62.0000       66.0000    27200    6.45%
    336   164       66.0000   164       62.0000       66.0000    35667    6.45%
Elapsed time = 7.06 sec. (5638.55 ticks, tree = 4.39 MB, solutions = 3)
*   380+    1                           66.0000       66.0000             0.00%

Clique cuts applied:  34
Implied bound cuts applied:  9
Zero-half cuts applied:  7

Root node processing (before b&c):
  Real time             =    2.63 sec. (1939.92 ticks)
Sequential b&c:
  Real time             =    5.74 sec. (4585.35 ticks)
                          ------------
Total (root+branch&cut) =    8.37 sec. (6525.27 ticks)
Solution is feasible.

---------------------
@@@ MIP_optimal
>>> Benchmark mc2024_track1_151.cnf k 2 OPT 66 TimeCost 20.616539001464844 TimeSolve 8.426326036453247 TimeRead 0.07241249084472656 TimeTrans 12.11780047416687
